data/processed_heuristic-threshold/instances/1/8/ds_619_courier_487/pairwise.tsp
NAME: ds_619_courier_487
TYPE: TSP
COMMENT: nil
DIMENSION: 9
EDGE_WEIGHT_TYPE: EXPLICIT
EDGE_WEIGHT_FORMAT: FULL_MATRIX
EDGE_WEIGHT_SECTION
9999 2930 2744 2562 2709 2398 2423 2245 3034 
2930 9999 234 367 404 536 514 5174 178 
2744 234 9999 229 465 353 386 4989 406 
2562 367 229 9999 344 177 159 4807 489 
2709 404 465 344 9999 481 364 4942 385 
2398 536 353 177 481 9999 138 4642 665 
2423 514 386 159 364 138 9999 4666 613 
2245 5174 4989 4807 4942 4642 4666 9999 5276 
3034 178 406 489 385 665 613 5276 9999 
