data/processed_heuristic-threshold/instances/1/8/ds_619_courier_487/pairwise.sol
9
0 7 6 4 8 1 2 3 5 
